50
1000
239
238
237
237
235
234
233
232
231
231
230
228
224
224
222
222
221
220
218
216
214
214
210
206
205
204
202
202
200
199
198
198
197
197
197
192
191
186
185
184
184
181
180
173
173
173
167
166
165
164
